(set-logic QF_SLIA)
(declare-fun var0 () String)
(assert (str.in_re var0 (re.++ ((_ re.loop 7 827) (re.++ (re.union (str.to_re "d") (re.union (str.to_re "%U") (re.union (str.to_re "CB+") (str.to_re "63")))) (re.++ (re.union (str.to_re "Dr(") (re.union (str.to_re "y") (re.union (str.to_re "m") (str.to_re "YCX")))) (re.++ (re.union (str.to_re "W+") (re.union (str.to_re "L") (re.union (str.to_re ",") (str.to_re "T")))) (re.union (str.to_re "w") (re.union (str.to_re "!") (re.union (str.to_re "@yk") (str.to_re "i")))))))) (re.++ ((_ re.loop 15 855) (re.++ (re.union (str.to_re "@") (re.union (str.to_re "do") (re.union (str.to_re "W+Q") (str.to_re "&")))) (re.++ (re.union (str.to_re "a") (re.union (str.to_re "bu") (re.union (str.to_re "~") (str.to_re "y")))) (re.++ (re.union (str.to_re "dN") (re.union (str.to_re "~") (re.union (str.to_re "t") (str.to_re "Dl")))) (re.union (str.to_re "g..") (re.union (str.to_re "C$") (re.union (str.to_re "x(t") (str.to_re "7A")))))))) (re.++ ((_ re.loop 14 502) (re.++ (re.union (str.to_re "_") (re.union (str.to_re "SP") (re.union (str.to_re "`") (str.to_re "\\<")))) (re.++ (re.union (str.to_re "sXK") (re.union (str.to_re "R") (re.union (str.to_re "pd4") (str.to_re "G#f")))) (re.++ (re.union (str.to_re "f$") (re.union (str.to_re ">g0") (re.union (str.to_re "9") (str.to_re "a9")))) (re.union (str.to_re "pVC") (re.union (str.to_re "tc") (re.union (str.to_re "3*8") (str.to_re "sk`")))))))) ((_ re.loop 12 774) (re.++ (re.union (str.to_re "N)^") (re.union (str.to_re "R") (re.union (str.to_re "Z") (str.to_re "|")))) (re.++ (re.union (str.to_re "&") (re.union (str.to_re "X") (re.union (str.to_re "FWH") (str.to_re "uED")))) (re.++ (re.union (str.to_re "BU") (re.union (str.to_re "/b.") (re.union (str.to_re "c") (str.to_re "`fQ")))) (re.union (str.to_re "{") (re.union (str.to_re "r'") (re.union (str.to_re "GcL") (str.to_re "~")))))))))))))
(assert (not (str.in_re var0 (re.++ ((_ re.loop 16 522) (re.++ (re.union (str.to_re "R*") (re.union (str.to_re "c") (re.union (str.to_re "2") (str.to_re ")+")))) (re.++ (re.union (str.to_re "CB") (re.union (str.to_re "x") (re.union (str.to_re "Ts") (str.to_re "I")))) (re.++ (re.union (str.to_re "3") (re.union (str.to_re "q") (re.union (str.to_re "6,") (str.to_re "%>k")))) (re.union (str.to_re "3") (re.union (str.to_re "3-") (re.union (str.to_re "*Wg") (str.to_re "z~")))))))) (re.++ ((_ re.loop 0 55) (re.++ (re.union (str.to_re "['") (re.union (str.to_re "1") (re.union (str.to_re "}P") (str.to_re "[9H")))) (re.++ (re.union (str.to_re "=") (re.union (str.to_re "v|u") (re.union (str.to_re "Bt_") (str.to_re "$")))) (re.++ (re.union (str.to_re "0") (re.union (str.to_re "ZW5") (re.union (str.to_re "(") (str.to_re "e")))) (re.union (str.to_re "T") (re.union (str.to_re "Iy") (re.union (str.to_re ":G") (str.to_re "P")))))))) (re.++ ((_ re.loop 7 785) (re.++ (re.union (str.to_re "8n<") (re.union (str.to_re "\\\u0022_") (re.union (str.to_re "c") (str.to_re "2~")))) (re.++ (re.union (str.to_re "^") (re.union (str.to_re "J") (re.union (str.to_re "aL") (str.to_re "4")))) (re.++ (re.union (str.to_re "Wm}") (re.union (str.to_re "8") (re.union (str.to_re "%Z") (str.to_re "{-")))) (re.union (str.to_re "U1") (re.union (str.to_re ")@") (re.union (str.to_re "J=") (str.to_re "@")))))))) ((_ re.loop 20 455) (re.++ (re.union (str.to_re "d#~") (re.union (str.to_re "P$") (re.union (str.to_re "meo") (str.to_re "`")))) (re.++ (re.union (str.to_re "&") (re.union (str.to_re "tZ") (re.union (str.to_re "^k'") (str.to_re "?9")))) (re.++ (re.union (str.to_re "-i") (re.union (str.to_re "*") (re.union (str.to_re "Z4$") (str.to_re "#V3")))) (re.union (str.to_re "#9O") (re.union (str.to_re "!") (re.union (str.to_re "Y") (str.to_re "w"))))))))))))))
(assert (not (str.in_re var0 (re.++ (re.* re.allchar) (re.++ (re.union (str.to_re "<") (re.union (str.to_re ">") (re.union (str.to_re "'") (re.union (str.to_re "\u0022") (str.to_re "&"))))) (re.* re.allchar))))))
(assert (<= 50 (str.len var0)))
(check-sat)
(get-model)
